
Gurobi 11.0.3 (linux64) logging started Tue 19 Nov 2024 01:39:10 AM CST

Set parameter LogFile to value "/home/dlcole3/graph_abstraction/hierarchical_graphs/git_storage/CS1/HP_low_reserves/gurobi_logs/serial/logfile_ST31_2.log"

Gurobi 11.0.3 (linux64) logging started Tue 19 Nov 2024 01:41:08 AM CST

Set parameter LogFile to value "/home/dlcole3/graph_abstraction/hierarchical_graphs/git_storage/CS1/HP_low_reserves/gurobi_logs/serial/logfile_ST31_2.log"
Gurobi Optimizer version 11.0.3 build v11.0.3rc0 (linux64 - "Ubuntu 18.04.3 LTS")

CPU model: Intel(R) Xeon(R) CPU E5-2698 v4 @ 2.20GHz, instruction set [SSE2|AVX|AVX2]
Thread count: 40 physical cores, 80 logical processors, using up to 20 threads

Optimize a model with 29168 rows, 50688 columns and 136175 nonzeros
Model fingerprint: 0xc3f6b3d4
Variable types: 46944 continuous, 3744 integer (3744 binary)
Coefficient statistics:
  Matrix range     [6e-01, 2e+04]
  Objective range  [2e+00, 2e+04]
  Bounds range     [5e-02, 2e+05]
  RHS range        [2e-02, 7e+03]
Presolve removed 14471 rows and 38723 columns
Presolve time: 0.39s
Presolved: 14697 rows, 11965 columns, 62693 nonzeros
Variable types: 9008 continuous, 2957 integer (2957 binary)
Found heuristic solution: objective 190871.95277
Found heuristic solution: objective 189217.40568
Found heuristic solution: objective 166996.61203

Root relaxation: objective 4.606841e+04, 8101 iterations, 0.48 seconds (0.37 work units)

    Nodes    |    Current Node    |     Objective Bounds      |     Work
 Expl Unexpl |  Obj  Depth IntInf | Incumbent    BestBd   Gap | It/Node Time

     0     0 46068.4148    0   59 166996.612 46068.4148  72.4%     -    1s
H    0     0                    166953.92505 46068.4148  72.4%     -    1s
H    0     0                    50759.290329 46068.4148  9.24%     -    1s
     0     0 46068.4148    0   59 50759.2903 46068.4148  9.24%     -    2s
     0     2 46068.4148    0   59 50759.2903 46068.4148  9.24%     -    2s
H   24    32                    49467.632829 46216.8351  6.57%   114    2s
H   33    36                    48004.534915 46216.8351  3.72%   100    3s
H  182    97                    47753.407827 46460.9942  2.71%  44.3    3s
H  183    97                    47639.686006 46460.9942  2.47%  44.3    3s
H  183    97                    47632.213760 46460.9942  2.46%  44.3    3s
H  288   152                    47620.593981 46460.9942  2.44%  31.1    3s
H  312   165                    47620.494057 46460.9942  2.43%  30.0    3s
H  397   203                    47618.079262 46460.9942  2.43%  26.3    4s
H  397   203                    47613.002017 46460.9942  2.42%  26.3    4s
H  410   203                    47602.020808 46460.9942  2.40%  26.0    4s
H  468   207                    47585.160639 46529.4723  2.22%  24.7    4s
H  552   232                    47582.923080 46529.4723  2.21%  23.1    4s
H  577   236                    47582.739374 46529.4723  2.21%  22.3    4s
H  590   236                    47581.071806 46529.4723  2.21%  22.0    4s
H  638   239                    47580.509375 46529.4723  2.21%  21.5    4s
*  688   243              34    47580.454427 46529.4723  2.21%  20.6    4s
   883   243 46712.7614   15   49 47580.4544 46529.4723  2.21%  18.5    5s
H  967   237                    47580.454407 46529.4723  2.21%  17.6    8s
H  972   237                    47577.602405 46529.4723  2.20%  17.6    8s
H  984   237                    47577.602302 46529.4723  2.20%  17.5    8s

Explored 1299 nodes (28690 simplex iterations) in 9.27 seconds (7.01 work units)
Thread count was 20 (of 80 available processors)

Solution count 10: 47577.6 47577.6 47577.6 ... 47632.2

Optimal solution found (tolerance 3.00e-03)
Best objective 4.757760230051e+04, best bound 4.747528539619e+04, gap 0.2151%

User-callback calls 5589, time in user-callback 0.01 sec
